50
100
69	3
67	6
65	2
64	1
62	1
61	2
60	2
59	1
58	1
57	2
56	2
55	5
54	2
53	1
52	3
49	1
48	2
47	2
46	2
45	1
44	2
43	1
41	1
40	1
39	1
38	1
37	4
36	1
35	2
34	3
32	5
31	3
30	2
29	3
28	2
27	1
26	1
25	1
24	1
23	2
22	3
21	2
18	1
17	2
16	2
15	3
14	2
13	1
12	3
11	1
